c Result of efficient AIG-to-CNF conversion using package CNF
p cnf 84 212
1 -71 -75 0
-1 71 0
-1 75 0
2 75 -80 0
-2 -75 0
-2 80 0
3 80 1 0
-3 -80 0
-3 -1 0
4 2 3 0
-4 -2 0
-4 -3 0
5 -72 -75 0
-5 72 0
-5 75 0
6 72 -79 0
-6 -72 0
-6 79 0
7 79 5 0
-7 -79 0
-7 -5 0
8 6 7 0
-8 -6 0
-8 -7 0
9 -74 8 0
-9 74 0
-9 -8 0
10 74 -78 0
-10 -74 0
-10 78 0
11 78 9 0
-11 -78 0
-11 -9 0
12 10 11 0
-12 -10 0
-12 -11 0
13 4 12 0
-13 -4 0
-13 -12 0
14 71 -76 0
-14 -71 0
-14 76 0
15 76 13 0
-15 -76 0
-15 -13 0
16 14 15 0
-16 -14 0
-16 -15 0
17 74 82 0
-17 -74 0
-17 -82 0
18 73 81 0
-18 -73 0
-18 -81 0
19 -17 -18 0
-19 17 0
-19 18 0
20 5 19 0
-20 -5 0
-20 -19 0
21 72 -77 0
-21 -72 0
-21 77 0
22 77 -20 0
-22 -77 0
-22 20 0
23 21 22 0
-23 -21 0
-23 -22 0
24 -74 5 0
-24 74 0
-24 -5 0
25 1 24 0
-25 -1 0
-25 -24 0
26 73 74 0
-26 -73 0
-26 -74 0
27 5 26 0
-27 -5 0
-27 -26 0
28 -16 25 0
-28 16 0
-28 -25 0
29 16 -25 0
-29 -16 0
-29 25 0
30 28 29 0
-30 -28 0
-30 -29 0
31 23 28 0
-31 -23 0
-31 -28 0
32 -23 -28 0
-32 23 0
-32 28 0
33 31 32 0
-33 -31 0
-33 -32 0
34 -27 -33 0
-34 27 0
-34 33 0
35 27 33 0
-35 -27 0
-35 -33 0
36 34 35 0
-36 -34 0
-36 -35 0
37 -23 -27 0
-37 23 0
-37 27 0
38 23 27 0
-38 -23 0
-38 -27 0
39 -28 38 0
-39 28 0
-39 -38 0
40 28 -37 0
-40 -28 0
-40 37 0
41 39 40 0
-41 -39 0
-41 -40 0
42 30 -36 0
-42 -30 0
-42 36 0
43 -30 36 0
-43 30 0
-43 -36 0
44 42 43 0
-44 -42 0
-44 -43 0
45 36 -41 0
-45 -36 0
-45 41 0
46 41 44 0
-46 -41 0
-46 -44 0
47 45 46 0
-47 -45 0
-47 -46 0
48 -76 -77 0
-48 76 0
-48 77 0
49 76 77 0
-49 -76 0
-49 -77 0
50 -78 -79 0
-50 78 0
-50 79 0
51 78 79 0
-51 -78 0
-51 -79 0
52 -48 -50 0
-52 48 0
-52 50 0
53 48 50 0
-53 -48 0
-53 -50 0
54 49 51 0
-54 -49 0
-54 -51 0
55 -49 -51 0
-55 49 0
-55 51 0
56 53 -54 0
-56 -53 0
-56 54 0
57 -53 54 0
-57 53 0
-57 -54 0
58 -80 -81 0
-58 80 0
-58 81 0
59 80 81 0
-59 -80 0
-59 -81 0
60 -82 -58 0
-60 82 0
-60 58 0
61 82 58 0
-61 -82 0
-61 -58 0
62 59 61 0
-62 -59 0
-62 -61 0
63 -59 -61 0
-63 59 0
-63 61 0
64 52 60 0
-64 -52 0
-64 -60 0
65 57 63 0
-65 -57 0
-65 -63 0
66 -64 65 0
-66 64 0
-66 -65 0
67 56 62 0
-67 -56 0
-67 -62 0
68 55 67 0
-68 -55 0
-68 -67 0
69 66 -68 0
-69 -66 0
-69 68 0
70 -47 -69 0
-70 47 0
-70 69 0
83 0
70 0

